c Formula 1 - SAT Benchmark with Simplification Opportunities
c This formula contains tautologies, subsumed clauses, duplicates, and unit clauses
c Generated for SAT solver preprocessing benchmark
p cnf 35 150
5 0
12 0
-18 0
1 2 3 0
1 2 0
1 2 4 0
1 2 5 6 0
-5 6 7 0
-5 6 0
6 7 8 9 0
3 -3 4 0
7 -7 8 9 0
10 11 -11 12 0
4 5 6 7 0
4 5 6 0
4 5 6 7 8 9 0
-1 -2 -3 0
-1 -2 0
8 9 10 0
8 9 10 11 12 0
13 14 15 0
13 14 15 16 0
13 14 0
-6 -7 -8 0
-6 -7 0
17 18 19 0
17 18 19 20 0
-12 13 14 0
15 16 17 0
-15 -16 -17 0
18 19 20 0
-18 19 20 0
21 22 23 0
21 22 23 24 0
-21 -22 -23 0
24 25 26 0
-24 -25 -26 0
27 28 29 0
27 28 0
-27 -28 30 0
1 2 3 0
4 5 6 7 0
8 9 10 0
31 32 33 0
-31 -32 34 0
34 35 -1 0
-34 -35 1 0
2 3 4 5 0
2 3 4 0
-2 -3 -4 0
6 7 8 0
-6 -7 9 0
10 11 12 0
-10 -11 -12 0
13 14 15 0
16 17 18 0
19 20 21 0
22 23 24 0
25 26 27 0
28 29 30 0
31 32 -33 0
-31 32 33 0
1 -2 3 0
-1 2 -3 0
4 -5 6 0
-4 5 -6 0
7 -8 9 0
-7 8 -9 0
10 -11 12 0
-10 11 -12 0
13 -14 15 0
-13 14 -15 0
16 -17 18 0
-16 17 -18 0
19 -20 21 0
-19 20 -21 0
22 -23 24 0
-22 23 -24 0
25 -26 27 0
-25 26 -27 0
28 -29 30 0
-28 29 -30 0
31 -32 33 0
-31 32 -33 0
1 3 5 0
2 4 6 0
7 9 11 0
8 10 12 0
13 15 17 0
14 16 18 0
19 21 23 0
20 22 24 0
25 27 29 0
26 28 30 0
1 2 3 4 0
5 6 7 8 0
9 10 11 12 0
13 14 15 16 0
17 18 19 20 0
21 22 23 24 0
25 26 27 28 0
29 30 31 32 0
-1 -3 -5 0
-2 -4 -6 0
-7 -9 -11 0
-8 -10 -12 0
-13 -15 -17 0
-14 -16 -18 0
-19 -21 -23 0
-20 -22 -24 0
-25 -27 -29 0
-26 -28 -30 0
1 4 7 0
2 5 8 0
3 6 9 0
10 13 16 0
11 14 17 0
12 15 18 0
19 22 25 0
20 23 26 0
21 24 27 0
28 31 34 0
29 32 35 0
30 33 -1 0
-2 -5 -8 0
-3 -6 -9 0
-10 -13 -16 0
-11 -14 -17 0
-12 -15 -18 0
-19 -22 -25 0
-20 -23 -26 0
-21 -24 -27 0
-28 -31 -34 0
-29 -32 -35 0
1 6 11 0
2 7 12 0
3 8 13 0
4 9 14 0
5 10 15 0
16 21 26 0
17 22 27 0
18 23 28 0
19 24 29 0
20 25 30 0